\ Model CVRP
\ LP format - for model browsing. Use MPS format to capture full model detail.
Minimize
  53407.96503999105 x[0,1] + 33701.43174834025 x[0,2]
   + 31189.34460094212 x[0,3] + 108560.9825934048 x[0,4]
   + 86122.68630593206 x[0,5] + 53407.96503999105 x[1,0]
   + 54501.55404448691 x[1,2] + 36241.76706322331 x[1,3]
   + 134017.2751747304 x[1,4] + 110231.6914280279 x[1,5]
   + 33701.43174834025 x[2,0] + 54501.55404448691 x[2,1]
   + 18322.40414786452 x[2,3] + 82399.24272102762 x[2,4]
   + 58636.32675164661 x[2,5] + 31189.34460094212 x[3,0]
   + 36241.76706322331 x[3,1] + 18322.40414786452 x[3,2]
   + 99794.41419817235 x[3,4] + 75918.23531824087 x[3,5]
   + 108560.9825934048 x[4,0] + 134017.2751747304 x[4,1]
   + 82399.24272102762 x[4,2] + 99794.41419817235 x[4,3]
   + 23883.21789554056 x[4,5] + 86122.68630593206 x[5,0]
   + 110231.6914280279 x[5,1] + 58636.32675164661 x[5,2]
   + 75918.23531824087 x[5,3] + 23883.21789554056 x[5,4]
Subject To
 4a[1]: x[1,0] + x[1,2] + x[1,3] + x[1,4] + x[1,5] = 1
 4a[2]: x[2,0] + x[2,1] + x[2,3] + x[2,4] + x[2,5] = 1
 4a[3]: x[3,0] + x[3,1] + x[3,2] + x[3,4] + x[3,5] = 1
 4a[4]: x[4,0] + x[4,1] + x[4,2] + x[4,3] + x[4,5] = 1
 4a[5]: x[5,0] + x[5,1] + x[5,2] + x[5,3] + x[5,4] = 1
 4b[0]: x[0,1] + x[0,2] + x[0,3] + x[0,4] + x[0,5] - x[1,0] - x[2,0]
   - x[3,0] - x[4,0] - x[5,0] = 0
 4b[1]: - x[0,1] + x[1,0] + x[1,2] + x[1,3] + x[1,4] + x[1,5] - x[2,1]
   - x[3,1] - x[4,1] - x[5,1] = 0
 4b[2]: - x[0,2] - x[1,2] + x[2,0] + x[2,1] + x[2,3] + x[2,4] + x[2,5]
   - x[3,2] - x[4,2] - x[5,2] = 0
 4b[3]: - x[0,3] - x[1,3] - x[2,3] + x[3,0] + x[3,1] + x[3,2] + x[3,4]
   + x[3,5] - x[4,3] - x[5,3] = 0
 4b[4]: - x[0,4] - x[1,4] - x[2,4] - x[3,4] + x[4,0] + x[4,1] + x[4,2]
   + x[4,3] + x[4,5] - x[5,4] = 0
 4b[5]: - x[0,5] - x[1,5] - x[2,5] - x[3,5] - x[4,5] + x[5,0] + x[5,1]
   + x[5,2] + x[5,3] + x[5,4] = 0
 5a[1]: - x[1,0] + sigma[1,1] + sigma[1,2] + sigma[1,3] + sigma[1,4]
   + sigma[1,5] <= 0
 5a[2]: - x[2,0] + sigma[2,1] + sigma[2,2] + sigma[2,3] + sigma[2,4]
   + sigma[2,5] <= 0
 5a[3]: - x[3,0] + sigma[3,1] + sigma[3,2] + sigma[3,3] + sigma[3,4]
   + sigma[3,5] <= 0
 5a[4]: - x[4,0] + sigma[4,1] + sigma[4,2] + sigma[4,3] + sigma[4,4]
   + sigma[4,5] <= 0
 5a[5]: - x[5,0] + sigma[5,1] + sigma[5,2] + sigma[5,3] + sigma[5,4]
   + sigma[5,5] <= 0
 5b[1]: - x[0,1] + sigma[1,1] + sigma[2,1] + sigma[3,1] + sigma[4,1]
   + sigma[5,1] <= 0
 5b[2]: - x[0,2] + sigma[1,2] + sigma[2,2] + sigma[3,2] + sigma[4,2]
   + sigma[5,2] <= 0
 5b[3]: - x[0,3] + sigma[1,3] + sigma[2,3] + sigma[3,3] + sigma[4,3]
   + sigma[5,3] <= 0
 5b[4]: - x[0,4] + sigma[1,4] + sigma[2,4] + sigma[3,4] + sigma[4,4]
   + sigma[5,4] <= 0
 5b[5]: - x[0,5] + sigma[1,5] + sigma[2,5] + sigma[3,5] + sigma[4,5]
   + sigma[5,5] <= 0
 5c: x[0,1] + x[0,2] + x[0,3] + x[0,4] + x[0,5] - sigma[1,2] - sigma[1,3]
   - sigma[1,4] - sigma[1,5] - sigma[2,1] - sigma[2,3] - sigma[2,4]
   - sigma[2,5] - sigma[3,1] - sigma[3,2] - sigma[3,4] - sigma[3,5]
   - sigma[4,1] - sigma[4,2] - sigma[4,3] - sigma[4,5] - sigma[5,1]
   - sigma[5,2] - sigma[5,3] - sigma[5,4] <= 4
 6a[1]: y[0,1] - y[1,0] - y[1,2] - y[1,3] - y[1,4] - y[1,5] + y[2,1]
   + y[3,1] + y[4,1] + y[5,1] = 2
 6a[2]: y[0,2] + y[1,2] - y[2,0] - y[2,1] - y[2,3] - y[2,4] - y[2,5]
   + y[3,2] + y[4,2] + y[5,2] = 2
 6a[3]: y[0,3] + y[1,3] + y[2,3] - y[3,0] - y[3,1] - y[3,2] - y[3,4]
   - y[3,5] + y[4,3] + y[5,3] = 2
 6a[4]: y[0,4] + y[1,4] + y[2,4] + y[3,4] - y[4,0] - y[4,1] - y[4,2]
   - y[4,3] - y[4,5] + y[5,4] = 2
 6a[5]: y[0,5] + y[1,5] + y[2,5] + y[3,5] + y[4,5] - y[5,0] - y[5,1]
   - y[5,2] - y[5,3] - y[5,4] = 2
 6b[0,1]: - 1e+06 x[0,1] + y[0,1] <= 0
 6b[0,2]: - 1e+06 x[0,2] + y[0,2] <= 0
 6b[0,3]: - 1e+06 x[0,3] + y[0,3] <= 0
 6b[0,4]: - 1e+06 x[0,4] + y[0,4] <= 0
 6b[0,5]: - 1e+06 x[0,5] + y[0,5] <= 0
 6b[1,0]: - 1e+06 x[1,0] + y[1,0] <= 0
 6b[1,2]: - 1e+06 x[1,2] + y[1,2] <= 0
 6b[1,3]: - 1e+06 x[1,3] + y[1,3] <= 0
 6b[1,4]: - 1e+06 x[1,4] + y[1,4] <= 0
 6b[1,5]: - 1e+06 x[1,5] + y[1,5] <= 0
 6b[2,0]: - 1e+06 x[2,0] + y[2,0] <= 0
 6b[2,1]: - 1e+06 x[2,1] + y[2,1] <= 0
 6b[2,3]: - 1e+06 x[2,3] + y[2,3] <= 0
 6b[2,4]: - 1e+06 x[2,4] + y[2,4] <= 0
 6b[2,5]: - 1e+06 x[2,5] + y[2,5] <= 0
 6b[3,0]: - 1e+06 x[3,0] + y[3,0] <= 0
 6b[3,1]: - 1e+06 x[3,1] + y[3,1] <= 0
 6b[3,2]: - 1e+06 x[3,2] + y[3,2] <= 0
 6b[3,4]: - 1e+06 x[3,4] + y[3,4] <= 0
 6b[3,5]: - 1e+06 x[3,5] + y[3,5] <= 0
 6b[4,0]: - 1e+06 x[4,0] + y[4,0] <= 0
 6b[4,1]: - 1e+06 x[4,1] + y[4,1] <= 0
 6b[4,2]: - 1e+06 x[4,2] + y[4,2] <= 0
 6b[4,3]: - 1e+06 x[4,3] + y[4,3] <= 0
 6b[4,5]: - 1e+06 x[4,5] + y[4,5] <= 0
 6b[5,0]: - 1e+06 x[5,0] + y[5,0] <= 0
 6b[5,1]: - 1e+06 x[5,1] + y[5,1] <= 0
 6b[5,2]: - 1e+06 x[5,2] + y[5,2] <= 0
 6b[5,3]: - 1e+06 x[5,3] + y[5,3] <= 0
 6b[5,4]: - 1e+06 x[5,4] + y[5,4] <= 0
 7a[0,1]: 1e+06 x[0,1] + t[0] - t[1] <= 998521.0097438187
 7a[0,2]: 1e+06 x[0,2] + t[0] - t[2] <= 999066.7292951935
 7a[0,3]: 1e+06 x[0,3] + t[0] - t[3] <= 999136.2948068338
 7a[0,4]: 1e+06 x[0,4] + t[0] - t[4] <= 996993.6949416272
 7a[0,5]: 1e+06 x[0,5] + t[0] - t[5] <= 997615.0633377014
 7a[1,2]: 1e+06 x[1,2] + t[1] - t[2] <= 998490.725731299
 7a[1,3]: 1e+06 x[1,3] + t[1] - t[3] <= 998996.3815263666
 7a[1,4]: 1e+06 x[1,4] + t[1] - t[4] <= 996288.751237854
 7a[1,5]: 1e+06 x[1,5] + t[1] - t[5] <= 996947.429144279
 7a[2,1]: 1e+06 x[2,1] - t[1] + t[2] <= 998490.725731299
 7a[2,3]: 1e+06 x[2,3] + t[2] - t[3] <= 999492.6101905545
 7a[2,4]: 1e+06 x[2,4] + t[2] - t[4] <= 997718.1741148559
 7a[2,5]: 1e+06 x[2,5] + t[2] - t[5] <= 998376.2242980234
 7a[3,1]: 1e+06 x[3,1] - t[1] + t[3] <= 998996.3815263666
 7a[3,2]: 1e+06 x[3,2] - t[2] + t[3] <= 999492.6101905545
 7a[3,4]: 1e+06 x[3,4] + t[3] - t[4] <= 997236.4615257311
 7a[3,5]: 1e+06 x[3,5] + t[3] - t[5] <= 997897.6482212328
 7a[4,1]: 1e+06 x[4,1] - t[1] + t[4] <= 996288.751237854
 7a[4,2]: 1e+06 x[4,2] - t[2] + t[4] <= 997718.1741148559
 7a[4,3]: 1e+06 x[4,3] - t[3] + t[4] <= 997236.4615257311
 7a[4,5]: 1e+06 x[4,5] + t[4] - t[5] <= 999338.6183778523
 7a[5,1]: 1e+06 x[5,1] - t[1] + t[5] <= 996947.429144279
 7a[5,2]: 1e+06 x[5,2] - t[2] + t[5] <= 998376.2242980234
 7a[5,3]: 1e+06 x[5,3] - t[3] + t[5] <= 997897.6482212328
 7a[5,4]: 1e+06 x[5,4] - t[4] + t[5] <= 999338.6183778523
 7b[1]: 1e+06 x[1,0] + t[1] - a[1] <= 998521.0097438187
 7b[2]: 1e+06 x[2,0] + t[2] - a[2] <= 999066.7292951935
 7b[3]: 1e+06 x[3,0] + t[3] - a[3] <= 999136.2948068338
 7b[4]: 1e+06 x[4,0] + t[4] - a[4] <= 996993.6949416272
 7b[5]: 1e+06 x[5,0] + t[5] - a[5] <= 997615.0633377014
 7c[1,2]: 1e+06 sigma[1,2] - t[2] + a[1] <= 999066.7292951935
 7c[1,3]: 1e+06 sigma[1,3] - t[3] + a[1] <= 999136.2948068338
 7c[1,4]: 1e+06 sigma[1,4] - t[4] + a[1] <= 996993.6949416272
 7c[1,5]: 1e+06 sigma[1,5] - t[5] + a[1] <= 997615.0633377014
 7c[2,1]: 1e+06 sigma[2,1] - t[1] + a[2] <= 998521.0097438187
 7c[2,3]: 1e+06 sigma[2,3] - t[3] + a[2] <= 999136.2948068338
 7c[2,4]: 1e+06 sigma[2,4] - t[4] + a[2] <= 996993.6949416272
 7c[2,5]: 1e+06 sigma[2,5] - t[5] + a[2] <= 997615.0633377014
 7c[3,1]: 1e+06 sigma[3,1] - t[1] + a[3] <= 998521.0097438187
 7c[3,2]: 1e+06 sigma[3,2] - t[2] + a[3] <= 999066.7292951935
 7c[3,4]: 1e+06 sigma[3,4] - t[4] + a[3] <= 996993.6949416272
 7c[3,5]: 1e+06 sigma[3,5] - t[5] + a[3] <= 997615.0633377014
 7c[4,1]: 1e+06 sigma[4,1] - t[1] + a[4] <= 998521.0097438187
 7c[4,2]: 1e+06 sigma[4,2] - t[2] + a[4] <= 999066.7292951935
 7c[4,3]: 1e+06 sigma[4,3] - t[3] + a[4] <= 999136.2948068338
 7c[4,5]: 1e+06 sigma[4,5] - t[5] + a[4] <= 997615.0633377014
 7c[5,1]: 1e+06 sigma[5,1] - t[1] + a[5] <= 998521.0097438187
 7c[5,2]: 1e+06 sigma[5,2] - t[2] + a[5] <= 999066.7292951935
 7c[5,3]: 1e+06 sigma[5,3] - t[3] + a[5] <= 999136.2948068338
 7c[5,4]: 1e+06 sigma[5,4] - t[4] + a[5] <= 996993.6949416272
 7d_7e[1]: t[1] <= 5500
 7d_7e[2]: t[2] <= 5500
 7d_7e[3]: t[3] <= 5500
 7d_7e[4]: t[4] <= 5500
 7d_7e[5]: t[5] <= 5500
 8a[0,1]: - 10 x[0,1] + y[0,1] <= 0
 8a[0,2]: - 10 x[0,2] + y[0,2] <= 0
 8a[0,3]: - 10 x[0,3] + y[0,3] <= 0
 8a[0,4]: - 10 x[0,4] + y[0,4] <= 0
 8a[0,5]: - 10 x[0,5] + y[0,5] <= 0
 8a[1,0]: - 10 x[1,0] + y[1,0] <= 0
 8a[1,2]: - 10 x[1,2] + y[1,2] <= 0
 8a[1,3]: - 10 x[1,3] + y[1,3] <= 0
 8a[1,4]: - 10 x[1,4] + y[1,4] <= 0
 8a[1,5]: - 10 x[1,5] + y[1,5] <= 0
 8a[2,0]: - 10 x[2,0] + y[2,0] <= 0
 8a[2,1]: - 10 x[2,1] + y[2,1] <= 0
 8a[2,3]: - 10 x[2,3] + y[2,3] <= 0
 8a[2,4]: - 10 x[2,4] + y[2,4] <= 0
 8a[2,5]: - 10 x[2,5] + y[2,5] <= 0
 8a[3,0]: - 10 x[3,0] + y[3,0] <= 0
 8a[3,1]: - 10 x[3,1] + y[3,1] <= 0
 8a[3,2]: - 10 x[3,2] + y[3,2] <= 0
 8a[3,4]: - 10 x[3,4] + y[3,4] <= 0
 8a[3,5]: - 10 x[3,5] + y[3,5] <= 0
 8a[4,0]: - 10 x[4,0] + y[4,0] <= 0
 8a[4,1]: - 10 x[4,1] + y[4,1] <= 0
 8a[4,2]: - 10 x[4,2] + y[4,2] <= 0
 8a[4,3]: - 10 x[4,3] + y[4,3] <= 0
 8a[4,5]: - 10 x[4,5] + y[4,5] <= 0
 8a[5,0]: - 10 x[5,0] + y[5,0] <= 0
 8a[5,1]: - 10 x[5,1] + y[5,1] <= 0
 8a[5,2]: - 10 x[5,2] + y[5,2] <= 0
 8a[5,3]: - 10 x[5,3] + y[5,3] <= 0
 8a[5,4]: - 10 x[5,4] + y[5,4] <= 0
 9a[0,1]: 1e+06 x[0,1] + f[0] - f[1] <= 957848.7776988309
 9a[0,2]: 1e+06 x[0,2] + f[0] - f[2] <= 973401.784913013
 9a[0,3]: 1e+06 x[0,3] + f[0] - f[3] <= 975384.4019947648
 9a[0,4]: 1e+06 x[0,4] + f[0] - f[4] <= 914320.3058363762
 9a[0,5]: 1e+06 x[0,5] + f[0] - f[5] <= 932029.305124489
 9a[1,2]: 1e+06 x[1,2] + f[1] - f[2] <= 956985.6833420229
 9a[1,3]: 1e+06 x[1,3] + f[1] - f[3] <= 971396.873501448
 9a[1,4]: 1e+06 x[1,4] + f[1] - f[4] <= 894229.4102788391
 9a[1,5]: 1e+06 x[1,5] + f[1] - f[5] <= 913001.7306119504
 9a[2,1]: 1e+06 x[2,1] - f[1] + f[2] <= 956985.6833420229
 9a[2,3]: 1e+06 x[2,3] + f[2] - f[3] <= 985539.3904308055
 9a[2,4]: 1e+06 x[2,4] + f[2] - f[4] <= 934967.9622733927
 9a[2,5]: 1e+06 x[2,5] + f[2] - f[5] <= 953722.3924936673
 9a[3,1]: 1e+06 x[3,1] - f[1] + f[3] <= 971396.873501448
 9a[3,2]: 1e+06 x[3,2] - f[2] + f[3] <= 985539.3904308055
 9a[3,4]: 1e+06 x[3,4] + f[3] - f[4] <= 921239.1534833359
 9a[3,5]: 1e+06 x[3,5] + f[3] - f[5] <= 940082.9743051343
 9a[4,1]: 1e+06 x[4,1] - f[1] + f[4] <= 894229.4102788391
 9a[4,2]: 1e+06 x[4,2] - f[2] + f[4] <= 934967.9622733927
 9a[4,3]: 1e+06 x[4,3] - f[3] + f[4] <= 921239.1534833359
 9a[4,5]: 1e+06 x[4,5] + f[4] - f[5] <= 981150.6237687884
 9a[5,1]: 1e+06 x[5,1] - f[1] + f[5] <= 913001.7306119504
 9a[5,2]: 1e+06 x[5,2] - f[2] + f[5] <= 953722.3924936673
 9a[5,3]: 1e+06 x[5,3] - f[3] + f[5] <= 940082.9743051343
 9a[5,4]: 1e+06 x[5,4] - f[4] + f[5] <= 981150.6237687884
 9b[1]: 1e+06 x[1,0] + f[1] - z[1] <= 957848.7776988309
 9b[2]: 1e+06 x[2,0] + f[2] - z[2] <= 973401.784913013
 9b[3]: 1e+06 x[3,0] + f[3] - z[3] <= 975384.4019947648
 9b[4]: 1e+06 x[4,0] + f[4] - z[4] <= 914320.3058363762
 9b[5]: 1e+06 x[5,0] + f[5] - z[5] <= 932029.305124489
 9c[1]: - 1e+06 x[1,0] + z[1] <= 0
 9c[2]: - 1e+06 x[2,0] + z[2] <= 0
 9c[3]: - 1e+06 x[3,0] + z[3] <= 0
 9c[4]: - 1e+06 x[4,0] + z[4] <= 0
 9c[5]: - 1e+06 x[5,0] + z[5] <= 0
Bounds
Binaries
 x[0,1] x[0,2] x[0,3] x[0,4] x[0,5] x[1,0] x[1,2] x[1,3] x[1,4] x[1,5]
 x[2,0] x[2,1] x[2,3] x[2,4] x[2,5] x[3,0] x[3,1] x[3,2] x[3,4] x[3,5]
 x[4,0] x[4,1] x[4,2] x[4,3] x[4,5] x[5,0] x[5,1] x[5,2] x[5,3] x[5,4]
 sigma[1,1] sigma[1,2] sigma[1,3] sigma[1,4] sigma[1,5] sigma[2,1]
 sigma[2,2] sigma[2,3] sigma[2,4] sigma[2,5] sigma[3,1] sigma[3,2]
 sigma[3,3] sigma[3,4] sigma[3,5] sigma[4,1] sigma[4,2] sigma[4,3]
 sigma[4,4] sigma[4,5] sigma[5,1] sigma[5,2] sigma[5,3] sigma[5,4]
 sigma[5,5]
End
